p cnf    396         22
c 1 string_bfd_file_ptr_eq_empty
c 2 string_bfd_file_ptr_eq_BFD_HOST_64_BIT
c 3 string_bfd_file_ptr_eq_bfd_file_ptr_otherval
c 4 string_BFD_HOSTPTR_T_eq_empty
c 5 string_BFD_HOSTPTR_T_eq_BFD_HOSTPTR_T_otherval
c 6 string_BFD_HOSTPTR_T_eq_unsigned&space;long
c 7 string_BFD_HOST_U_64_BIT_eq_empty
c 8 string_BFD_HOST_U_64_BIT_eq_BFD_HOST_U_64_BIT_otherval
c 9 string_BFD_HOST_U_64_BIT_eq_unsigned&space;long&space;long
c 10 string_BFD_HOST_64_BIT_eq_empty
c 11 string_BFD_HOST_64_BIT_eq_BFD_HOST_64_BIT_otherval
c 12 string_BFD_HOST_64_BIT_eq_long&space;long
c 13 sign_int_BFD_HOST_64BIT_LONG_LONG
c 14 bit_6_int_BFD_HOST_64BIT_LONG_LONG
c 15 bit_8_int_BFD_HOST_64BIT_LONG_LONG
c 16 bit_9_int_BFD_HOST_64BIT_LONG_LONG
c 17 bit_52_int_BFD_HOST_64BIT_LONG_LONG
c 18 bit_41_int_BFD_HOST_64BIT_LONG_LONG
c 19 bit_61_int_BFD_HOST_64BIT_LONG_LONG
c 20 bit_59_int_BFD_HOST_64BIT_LONG_LONG
c 21 bit_7_int_BFD_HOST_64BIT_LONG_LONG
c 22 bit_54_int_BFD_HOST_64BIT_LONG_LONG
c 23 bit_62_int_BFD_HOST_64BIT_LONG_LONG
c 24 bit_48_int_BFD_HOST_64BIT_LONG_LONG
c 25 bit_60_int_BFD_HOST_64BIT_LONG_LONG
c 26 bit_33_int_BFD_HOST_64BIT_LONG_LONG
c 27 bit_28_int_BFD_HOST_64BIT_LONG_LONG
c 28 bit_47_int_BFD_HOST_64BIT_LONG_LONG
c 29 bit_46_int_BFD_HOST_64BIT_LONG_LONG
c 30 bit_10_int_BFD_HOST_64BIT_LONG_LONG
c 31 bit_43_int_BFD_HOST_64BIT_LONG_LONG
c 32 bit_1_int_BFD_HOST_64BIT_LONG_LONG
c 33 bit_26_int_BFD_HOST_64BIT_LONG_LONG
c 34 bit_36_int_BFD_HOST_64BIT_LONG_LONG
c 35 bit_16_int_BFD_HOST_64BIT_LONG_LONG
c 36 bit_34_int_BFD_HOST_64BIT_LONG_LONG
c 37 bit_40_int_BFD_HOST_64BIT_LONG_LONG
c 38 bit_21_int_BFD_HOST_64BIT_LONG_LONG
c 39 bit_0_int_BFD_HOST_64BIT_LONG_LONG
c 40 bit_39_int_BFD_HOST_64BIT_LONG_LONG
c 41 bit_3_int_BFD_HOST_64BIT_LONG_LONG
c 42 bit_35_int_BFD_HOST_64BIT_LONG_LONG
c 43 bit_45_int_BFD_HOST_64BIT_LONG_LONG
c 44 bit_2_int_BFD_HOST_64BIT_LONG_LONG
c 45 bit_42_int_BFD_HOST_64BIT_LONG_LONG
c 46 bit_53_int_BFD_HOST_64BIT_LONG_LONG
c 47 bit_58_int_BFD_HOST_64BIT_LONG_LONG
c 48 bit_37_int_BFD_HOST_64BIT_LONG_LONG
c 49 bit_22_int_BFD_HOST_64BIT_LONG_LONG
c 50 bit_55_int_BFD_HOST_64BIT_LONG_LONG
c 51 bit_50_int_BFD_HOST_64BIT_LONG_LONG
c 52 bit_32_int_BFD_HOST_64BIT_LONG_LONG
c 53 bit_44_int_BFD_HOST_64BIT_LONG_LONG
c 54 bit_30_int_BFD_HOST_64BIT_LONG_LONG
c 55 bit_29_int_BFD_HOST_64BIT_LONG_LONG
c 56 bit_27_int_BFD_HOST_64BIT_LONG_LONG
c 57 bit_38_int_BFD_HOST_64BIT_LONG_LONG
c 58 bit_5_int_BFD_HOST_64BIT_LONG_LONG
c 59 bit_25_int_BFD_HOST_64BIT_LONG_LONG
c 60 bit_15_int_BFD_HOST_64BIT_LONG_LONG
c 61 bit_24_int_BFD_HOST_64BIT_LONG_LONG
c 62 bit_23_int_BFD_HOST_64BIT_LONG_LONG
c 63 bit_31_int_BFD_HOST_64BIT_LONG_LONG
c 64 bit_20_int_BFD_HOST_64BIT_LONG_LONG
c 65 bit_4_int_BFD_HOST_64BIT_LONG_LONG
c 66 bit_13_int_BFD_HOST_64BIT_LONG_LONG
c 67 bit_57_int_BFD_HOST_64BIT_LONG_LONG
c 68 bit_56_int_BFD_HOST_64BIT_LONG_LONG
c 69 bit_19_int_BFD_HOST_64BIT_LONG_LONG
c 70 bit_18_int_BFD_HOST_64BIT_LONG_LONG
c 71 bit_51_int_BFD_HOST_64BIT_LONG_LONG
c 72 bit_12_int_BFD_HOST_64BIT_LONG_LONG
c 73 bit_17_int_BFD_HOST_64BIT_LONG_LONG
c 74 bit_14_int_BFD_HOST_64BIT_LONG_LONG
c 75 bit_11_int_BFD_HOST_64BIT_LONG_LONG
c 76 bit_49_int_BFD_HOST_64BIT_LONG_LONG
c 77 sign_int_BFD_HOST_64BIT_LONG
c 78 bit_5_int_BFD_HOST_64BIT_LONG
c 79 bit_7_int_BFD_HOST_64BIT_LONG
c 80 bit_56_int_BFD_HOST_64BIT_LONG
c 81 bit_50_int_BFD_HOST_64BIT_LONG
c 82 bit_57_int_BFD_HOST_64BIT_LONG
c 83 bit_22_int_BFD_HOST_64BIT_LONG
c 84 bit_28_int_BFD_HOST_64BIT_LONG
c 85 bit_15_int_BFD_HOST_64BIT_LONG
c 86 bit_24_int_BFD_HOST_64BIT_LONG
c 87 bit_62_int_BFD_HOST_64BIT_LONG
c 88 bit_43_int_BFD_HOST_64BIT_LONG
c 89 bit_34_int_BFD_HOST_64BIT_LONG
c 90 bit_51_int_BFD_HOST_64BIT_LONG
c 91 bit_60_int_BFD_HOST_64BIT_LONG
c 92 bit_3_int_BFD_HOST_64BIT_LONG
c 93 bit_59_int_BFD_HOST_64BIT_LONG
c 94 bit_19_int_BFD_HOST_64BIT_LONG
c 95 bit_44_int_BFD_HOST_64BIT_LONG
c 96 bit_48_int_BFD_HOST_64BIT_LONG
c 97 bit_26_int_BFD_HOST_64BIT_LONG
c 98 bit_36_int_BFD_HOST_64BIT_LONG
c 99 bit_39_int_BFD_HOST_64BIT_LONG
c 100 bit_13_int_BFD_HOST_64BIT_LONG
c 101 bit_27_int_BFD_HOST_64BIT_LONG
c 102 bit_61_int_BFD_HOST_64BIT_LONG
c 103 bit_40_int_BFD_HOST_64BIT_LONG
c 104 bit_42_int_BFD_HOST_64BIT_LONG
c 105 bit_47_int_BFD_HOST_64BIT_LONG
c 106 bit_10_int_BFD_HOST_64BIT_LONG
c 107 bit_1_int_BFD_HOST_64BIT_LONG
c 108 bit_0_int_BFD_HOST_64BIT_LONG
c 109 bit_52_int_BFD_HOST_64BIT_LONG
c 110 bit_21_int_BFD_HOST_64BIT_LONG
c 111 bit_53_int_BFD_HOST_64BIT_LONG
c 112 bit_35_int_BFD_HOST_64BIT_LONG
c 113 bit_38_int_BFD_HOST_64BIT_LONG
c 114 bit_33_int_BFD_HOST_64BIT_LONG
c 115 bit_2_int_BFD_HOST_64BIT_LONG
c 116 bit_32_int_BFD_HOST_64BIT_LONG
c 117 bit_20_int_BFD_HOST_64BIT_LONG
c 118 bit_16_int_BFD_HOST_64BIT_LONG
c 119 bit_31_int_BFD_HOST_64BIT_LONG
c 120 bit_30_int_BFD_HOST_64BIT_LONG
c 121 bit_58_int_BFD_HOST_64BIT_LONG
c 122 bit_29_int_BFD_HOST_64BIT_LONG
c 123 bit_17_int_BFD_HOST_64BIT_LONG
c 124 bit_41_int_BFD_HOST_64BIT_LONG
c 125 bit_37_int_BFD_HOST_64BIT_LONG
c 126 bit_25_int_BFD_HOST_64BIT_LONG
c 127 bit_46_int_BFD_HOST_64BIT_LONG
c 128 bit_14_int_BFD_HOST_64BIT_LONG
c 129 bit_23_int_BFD_HOST_64BIT_LONG
c 130 bit_49_int_BFD_HOST_64BIT_LONG
c 131 bit_18_int_BFD_HOST_64BIT_LONG
c 132 bit_12_int_BFD_HOST_64BIT_LONG
c 133 bit_11_int_BFD_HOST_64BIT_LONG
c 134 bit_45_int_BFD_HOST_64BIT_LONG
c 135 bit_9_int_BFD_HOST_64BIT_LONG
c 136 bit_4_int_BFD_HOST_64BIT_LONG
c 137 bit_54_int_BFD_HOST_64BIT_LONG
c 138 bit_55_int_BFD_HOST_64BIT_LONG
c 139 bit_8_int_BFD_HOST_64BIT_LONG
c 140 bit_6_int_BFD_HOST_64BIT_LONG
c 141 sign_int_BFD_HOST_64_BIT_DEFINED
c 142 bit_4_int_BFD_HOST_64_BIT_DEFINED
c 143 bit_8_int_BFD_HOST_64_BIT_DEFINED
c 144 bit_47_int_BFD_HOST_64_BIT_DEFINED
c 145 bit_11_int_BFD_HOST_64_BIT_DEFINED
c 146 bit_57_int_BFD_HOST_64_BIT_DEFINED
c 147 bit_60_int_BFD_HOST_64_BIT_DEFINED
c 148 bit_2_int_BFD_HOST_64_BIT_DEFINED
c 149 bit_56_int_BFD_HOST_64_BIT_DEFINED
c 150 bit_44_int_BFD_HOST_64_BIT_DEFINED
c 151 bit_58_int_BFD_HOST_64_BIT_DEFINED
c 152 bit_48_int_BFD_HOST_64_BIT_DEFINED
c 153 bit_35_int_BFD_HOST_64_BIT_DEFINED
c 154 bit_12_int_BFD_HOST_64_BIT_DEFINED
c 155 bit_27_int_BFD_HOST_64_BIT_DEFINED
c 156 bit_61_int_BFD_HOST_64_BIT_DEFINED
c 157 bit_50_int_BFD_HOST_64_BIT_DEFINED
c 158 bit_53_int_BFD_HOST_64_BIT_DEFINED
c 159 bit_3_int_BFD_HOST_64_BIT_DEFINED
c 160 bit_41_int_BFD_HOST_64_BIT_DEFINED
c 161 bit_42_int_BFD_HOST_64_BIT_DEFINED
c 162 bit_59_int_BFD_HOST_64_BIT_DEFINED
c 163 bit_34_int_BFD_HOST_64_BIT_DEFINED
c 164 bit_15_int_BFD_HOST_64_BIT_DEFINED
c 165 bit_5_int_BFD_HOST_64_BIT_DEFINED
c 166 bit_40_int_BFD_HOST_64_BIT_DEFINED
c 167 bit_19_int_BFD_HOST_64_BIT_DEFINED
c 168 bit_38_int_BFD_HOST_64_BIT_DEFINED
c 169 bit_46_int_BFD_HOST_64_BIT_DEFINED
c 170 bit_7_int_BFD_HOST_64_BIT_DEFINED
c 171 bit_43_int_BFD_HOST_64_BIT_DEFINED
c 172 bit_37_int_BFD_HOST_64_BIT_DEFINED
c 173 bit_17_int_BFD_HOST_64_BIT_DEFINED
c 174 bit_39_int_BFD_HOST_64_BIT_DEFINED
c 175 bit_49_int_BFD_HOST_64_BIT_DEFINED
c 176 bit_55_int_BFD_HOST_64_BIT_DEFINED
c 177 bit_24_int_BFD_HOST_64_BIT_DEFINED
c 178 bit_10_int_BFD_HOST_64_BIT_DEFINED
c 179 bit_51_int_BFD_HOST_64_BIT_DEFINED
c 180 bit_62_int_BFD_HOST_64_BIT_DEFINED
c 181 bit_36_int_BFD_HOST_64_BIT_DEFINED
c 182 bit_9_int_BFD_HOST_64_BIT_DEFINED
c 183 bit_20_int_BFD_HOST_64_BIT_DEFINED
c 184 bit_1_int_BFD_HOST_64_BIT_DEFINED
c 185 bit_54_int_BFD_HOST_64_BIT_DEFINED
c 186 bit_52_int_BFD_HOST_64_BIT_DEFINED
c 187 bit_30_int_BFD_HOST_64_BIT_DEFINED
c 188 bit_45_int_BFD_HOST_64_BIT_DEFINED
c 189 bit_6_int_BFD_HOST_64_BIT_DEFINED
c 190 bit_33_int_BFD_HOST_64_BIT_DEFINED
c 191 bit_31_int_BFD_HOST_64_BIT_DEFINED
c 192 bit_0_int_BFD_HOST_64_BIT_DEFINED
c 193 bit_32_int_BFD_HOST_64_BIT_DEFINED
c 194 bit_29_int_BFD_HOST_64_BIT_DEFINED
c 195 bit_25_int_BFD_HOST_64_BIT_DEFINED
c 196 bit_14_int_BFD_HOST_64_BIT_DEFINED
c 197 bit_28_int_BFD_HOST_64_BIT_DEFINED
c 198 bit_26_int_BFD_HOST_64_BIT_DEFINED
c 199 bit_23_int_BFD_HOST_64_BIT_DEFINED
c 200 bit_22_int_BFD_HOST_64_BIT_DEFINED
c 201 bit_21_int_BFD_HOST_64_BIT_DEFINED
c 202 bit_13_int_BFD_HOST_64_BIT_DEFINED
c 203 bit_18_int_BFD_HOST_64_BIT_DEFINED
c 204 bit_16_int_BFD_HOST_64_BIT_DEFINED
c 205 sign_int_bfd_default_target_size
c 206 bit_4_int_bfd_default_target_size
c 207 bit_6_int_bfd_default_target_size
c 208 bit_39_int_bfd_default_target_size
c 209 bit_20_int_bfd_default_target_size
c 210 bit_55_int_bfd_default_target_size
c 211 bit_22_int_bfd_default_target_size
c 212 bit_0_int_bfd_default_target_size
c 213 bit_58_int_bfd_default_target_size
c 214 bit_59_int_bfd_default_target_size
c 215 bit_42_int_bfd_default_target_size
c 216 bit_32_int_bfd_default_target_size
c 217 bit_3_int_bfd_default_target_size
c 218 bit_62_int_bfd_default_target_size
c 219 bit_51_int_bfd_default_target_size
c 220 bit_40_int_bfd_default_target_size
c 221 bit_45_int_bfd_default_target_size
c 222 bit_44_int_bfd_default_target_size
c 223 bit_2_int_bfd_default_target_size
c 224 bit_41_int_bfd_default_target_size
c 225 bit_52_int_bfd_default_target_size
c 226 bit_19_int_bfd_default_target_size
c 227 bit_46_int_bfd_default_target_size
c 228 bit_60_int_bfd_default_target_size
c 229 bit_36_int_bfd_default_target_size
c 230 bit_56_int_bfd_default_target_size
c 231 bit_61_int_bfd_default_target_size
c 232 bit_8_int_bfd_default_target_size
c 233 bit_49_int_bfd_default_target_size
c 234 bit_48_int_bfd_default_target_size
c 235 bit_1_int_bfd_default_target_size
c 236 bit_13_int_bfd_default_target_size
c 237 bit_35_int_bfd_default_target_size
c 238 bit_26_int_bfd_default_target_size
c 239 bit_54_int_bfd_default_target_size
c 240 bit_37_int_bfd_default_target_size
c 241 bit_53_int_bfd_default_target_size
c 242 bit_43_int_bfd_default_target_size
c 243 bit_7_int_bfd_default_target_size
c 244 bit_11_int_bfd_default_target_size
c 245 bit_9_int_bfd_default_target_size
c 246 bit_34_int_bfd_default_target_size
c 247 bit_50_int_bfd_default_target_size
c 248 bit_33_int_bfd_default_target_size
c 249 bit_12_int_bfd_default_target_size
c 250 bit_5_int_bfd_default_target_size
c 251 bit_30_int_bfd_default_target_size
c 252 bit_29_int_bfd_default_target_size
c 253 bit_31_int_bfd_default_target_size
c 254 bit_57_int_bfd_default_target_size
c 255 bit_28_int_bfd_default_target_size
c 256 bit_27_int_bfd_default_target_size
c 257 bit_25_int_bfd_default_target_size
c 258 bit_24_int_bfd_default_target_size
c 259 bit_38_int_bfd_default_target_size
c 260 bit_23_int_bfd_default_target_size
c 261 bit_15_int_bfd_default_target_size
c 262 bit_47_int_bfd_default_target_size
c 263 bit_21_int_bfd_default_target_size
c 264 bit_18_int_bfd_default_target_size
c 265 bit_17_int_bfd_default_target_size
c 266 bit_16_int_bfd_default_target_size
c 267 bit_14_int_bfd_default_target_size
c 268 bit_10_int_bfd_default_target_size
c 269 sign_int_wordsize
c 270 bit_8_int_wordsize
c 271 bit_10_int_wordsize
c 272 bit_11_int_wordsize
c 273 bit_13_int_wordsize
c 274 bit_61_int_wordsize
c 275 bit_12_int_wordsize
c 276 bit_53_int_wordsize
c 277 bit_54_int_wordsize
c 278 bit_22_int_wordsize
c 279 bit_26_int_wordsize
c 280 bit_42_int_wordsize
c 281 bit_55_int_wordsize
c 282 bit_39_int_wordsize
c 283 bit_59_int_wordsize
c 284 bit_40_int_wordsize
c 285 bit_52_int_wordsize
c 286 bit_17_int_wordsize
c 287 bit_62_int_wordsize
c 288 bit_48_int_wordsize
c 289 bit_0_int_wordsize
c 290 bit_38_int_wordsize
c 291 bit_44_int_wordsize
c 292 bit_15_int_wordsize
c 293 bit_1_int_wordsize
c 294 bit_57_int_wordsize
c 295 bit_32_int_wordsize
c 296 bit_47_int_wordsize
c 297 bit_46_int_wordsize
c 298 bit_2_int_wordsize
c 299 bit_50_int_wordsize
c 300 bit_24_int_wordsize
c 301 bit_3_int_wordsize
c 302 bit_41_int_wordsize
c 303 bit_23_int_wordsize
c 304 bit_7_int_wordsize
c 305 bit_45_int_wordsize
c 306 bit_37_int_wordsize
c 307 bit_6_int_wordsize
c 308 bit_27_int_wordsize
c 309 bit_35_int_wordsize
c 310 bit_58_int_wordsize
c 311 bit_30_int_wordsize
c 312 bit_9_int_wordsize
c 313 bit_56_int_wordsize
c 314 bit_49_int_wordsize
c 315 bit_34_int_wordsize
c 316 bit_29_int_wordsize
c 317 bit_36_int_wordsize
c 318 bit_14_int_wordsize
c 319 bit_43_int_wordsize
c 320 bit_33_int_wordsize
c 321 bit_31_int_wordsize
c 322 bit_25_int_wordsize
c 323 bit_28_int_wordsize
c 324 bit_51_int_wordsize
c 325 bit_21_int_wordsize
c 326 bit_20_int_wordsize
c 327 bit_19_int_wordsize
c 328 bit_4_int_wordsize
c 329 bit_5_int_wordsize
c 330 bit_60_int_wordsize
c 331 bit_18_int_wordsize
c 332 bit_16_int_wordsize
c 333 sign_int_supports_plugins
c 334 bit_4_int_supports_plugins
c 335 bit_7_int_supports_plugins
c 336 bit_8_int_supports_plugins
c 337 bit_46_int_supports_plugins
c 338 bit_32_int_supports_plugins
c 339 bit_44_int_supports_plugins
c 340 bit_36_int_supports_plugins
c 341 bit_30_int_supports_plugins
c 342 bit_43_int_supports_plugins
c 343 bit_5_int_supports_plugins
c 344 bit_22_int_supports_plugins
c 345 bit_37_int_supports_plugins
c 346 bit_27_int_supports_plugins
c 347 bit_61_int_supports_plugins
c 348 bit_17_int_supports_plugins
c 349 bit_49_int_supports_plugins
c 350 bit_60_int_supports_plugins
c 351 bit_21_int_supports_plugins
c 352 bit_38_int_supports_plugins
c 353 bit_16_int_supports_plugins
c 354 bit_0_int_supports_plugins
c 355 bit_35_int_supports_plugins
c 356 bit_54_int_supports_plugins
c 357 bit_39_int_supports_plugins
c 358 bit_1_int_supports_plugins
c 359 bit_47_int_supports_plugins
c 360 bit_3_int_supports_plugins
c 361 bit_31_int_supports_plugins
c 362 bit_56_int_supports_plugins
c 363 bit_40_int_supports_plugins
c 364 bit_41_int_supports_plugins
c 365 bit_34_int_supports_plugins
c 366 bit_48_int_supports_plugins
c 367 bit_62_int_supports_plugins
c 368 bit_51_int_supports_plugins
c 369 bit_45_int_supports_plugins
c 370 bit_58_int_supports_plugins
c 371 bit_55_int_supports_plugins
c 372 bit_57_int_supports_plugins
c 373 bit_2_int_supports_plugins
c 374 bit_33_int_supports_plugins
c 375 bit_53_int_supports_plugins
c 376 bit_15_int_supports_plugins
c 377 bit_25_int_supports_plugins
c 378 bit_6_int_supports_plugins
c 379 bit_11_int_supports_plugins
c 380 bit_52_int_supports_plugins
c 381 bit_29_int_supports_plugins
c 382 bit_24_int_supports_plugins
c 383 bit_59_int_supports_plugins
c 384 bit_28_int_supports_plugins
c 385 bit_9_int_supports_plugins
c 386 bit_26_int_supports_plugins
c 387 bit_50_int_supports_plugins
c 388 bit_23_int_supports_plugins
c 389 bit_42_int_supports_plugins
c 390 bit_20_int_supports_plugins
c 391 bit_19_int_supports_plugins
c 392 bit_18_int_supports_plugins
c 393 bit_14_int_supports_plugins
c 394 bit_13_int_supports_plugins
c 395 bit_12_int_supports_plugins
c 396 bit_10_int_supports_plugins
-3 -2 0
-1 -3 0
-1 -2 0
1 2 3 0
-6 -5 0
-6 -4 0
-4 -5 0
4 6 5 0
-9 -8 0
-9 -7 0
-7 -8 0
7 9 8 0
-12 -11 0
-12 -10 0
-10 -11 0
10 12 11 0
39 32 36 34 33 35 40 37 38 31 44 41 42 43 30 29 28 27 24 26 25 23 22 21 19 18 17 20 45 46 47 48 49 50 51 52 53 54 55 56 57 58 59 60 61 62 63 64 67 66 65 68 69 70 71 72 73 74 76 75 16 15 14 -13 0
108 107 90 98 99 103 104 105 106 95 96 109 102 92 91 89 88 101 100 87 86 94 93 84 83 85 82 110 111 112 113 114 115 116 117 118 119 120 121 122 123 97 124 125 126 127 128 129 130 131 132 133 134 135 136 137 138 139 140 81 80 79 78 -77 0
148 163 164 172 173 166 165 160 161 171 170 168 169 167 174 162 159 158 156 157 155 153 154 152 150 149 147 151 146 175 176 180 179 177 178 181 184 182 183 185 186 187 188 189 190 191 192 193 194 195 196 197 198 199 200 201 202 203 204 145 144 143 142 -141 0
212 223 217 224 225 229 235 234 226 232 233 240 220 219 218 216 239 214 213 215 227 228 210 209 211 222 221 231 230 241 242 243 244 247 248 249 250 251 252 253 254 255 256 237 236 238 257 258 259 260 261 262 263 264 265 266 267 268 246 245 208 207 206 -205 0
289 293 298 301 306 307 302 303 304 305 296 297 309 308 288 287 280 279 278 283 277 276 274 275 284 295 294 282 281 286 285 290 291 292 310 311 312 313 314 315 316 317 318 319 299 300 320 321 322 323 324 325 326 327 330 328 329 331 332 273 272 271 270 -269 0
354 358 360 355 340 357 364 363 362 356 359 366 367 346 349 347 348 342 343 341 339 338 345 344 350 351 352 353 365 368 369 370 371 372 373 374 375 376 377 378 379 380 361 381 383 382 384 385 386 387 388 389 390 391 392 393 394 395 396 337 336 335 334 -333 0
